NAME: binpacking2d-04.bp2d
COMMENT: gcut4
NB_ITEMS: 50
BIN_WIDTH: 250
BIN_HEIGHT: 250

ITEMS [id width height]:
1 139 103
2 166 99
3 88 74
4 174 139
5 128 109
6 175 179
7 62 82
8 178 87
9 121 77
10 125 97
11 73 84
12 69 97
13 122 159
14 66 69
15 111 118
16 165 86
17 71 83
18 163 162
19 67 132
20 121 152
21 68 150
22 138 124
23 141 105
24 183 122
25 171 63
26 101 64
27 103 95
28 110 107
29 184 158
30 85 97
31 86 92
32 127 155
33 92 147
34 106 97
35 177 108
36 164 150
37 68 84
38 62 151
39 123 134
40 158 178
41 70 140
42 173 117
43 147 136
44 141 145
45 84 164
46 144 141
47 92 103
48 156 98
49 160 111
50 127 131